NAME: random-77-4021
TYPE: TSP
COMMENT: size=77 seed=4021
DIMENSION: 156
EDGE_WEIGHT_TYPE: EUC_2D
NODE_COORD_SECTION
+0 947 613
-0 947 613
+1 656 352
-1 141 775
+2 426 463
-2 566 529
+3 705 949
-3 269 100
+4 261 899
-4 613 456
+5 697 182
-5 793 870
+6 666 247
-6 336 875
+7 352 142
-7 17 938
+8 167 677
-8 537 900
+9 238 602
-9 511 798
+10 836 462
-10 718 293
+11 692 721
-11 55 532
+12 962 659
-12 967 973
+13 336 889
-13 760 447
+14 72 93
-14 345 742
+15 23 870
-15 357 50
+16 172 971
-16 227 60
+17 718 81
-17 847 633
+18 577 195
-18 55 145
+19 722 209
-19 811 937
+20 199 886
-20 448 625
+21 180 538
-21 85 832
+22 825 174
-22 709 126
+23 688 761
-23 520 439
+24 604 276
-24 144 534
+25 1 830
-25 653 489
+26 31 712
-26 495 933
+27 771 396
-27 662 675
+28 482 768
-28 71 163
+29 608 194
-29 497 624
+30 305 409
-30 710 913
+31 419 790
-31 536 422
+32 757 630
-32 580 878
+33 934 759
-33 610 568
+34 772 281
-34 524 121
+35 706 324
-35 806 232
+36 345 569
-36 650 922
+37 624 418
-37 757 50
+38 613 158
-38 433 773
+39 746 114
-39 152 483
+40 171 621
-40 518 571
+41 240 599
-41 662 287
+42 263 311
-42 777 307
+43 233 654
-43 329 947
+44 551 18
-44 680 877
+45 50 311
-45 668 657
+46 47 430
-46 812 447
+47 848 553
-47 606 330
+48 577 526
-48 892 88
+49 107 263
-49 657 740
+50 934 714
-50 235 777
+51 498 654
-51 291 697
+52 544 729
-52 867 459
+53 782 112
-53 637 12
+54 275 437
-54 627 953
+55 421 58
-55 534 782
+56 511 217
-56 806 877
+57 782 126
-57 105 794
+58 985 991
-58 785 803
+59 245 244
-59 10 506
+60 312 659
-60 242 405
+61 427 592
-61 197 69
+62 84 685
-62 430 457
+63 445 109
-63 570 516
+64 895 159
-64 376 433
+65 849 471
-65 329 564
+66 925 126
-66 361 334
+67 202 184
-67 941 955
+68 351 322
-68 243 663
+69 27 87
-69 944 452
+70 483 537
-70 797 146
+71 877 489
-71 152 165
+72 786 662
-72 879 511
+73 729 145
-73 854 771
+74 579 618
-74 99 531
+75 160 235
-75 506 777
+76 178 289
-76 706 178
+77 678 474
-77 553 388
PRECEDENCE_SECTION
+0 -0
+1 -1
+2 -2
+3 -3
+4 -4
+5 -5
+6 -6
+7 -7
+8 -8
+9 -9
+10 -10
+11 -11
+12 -12
+13 -13
+14 -14
+15 -15
+16 -16
+17 -17
+18 -18
+19 -19
+20 -20
+21 -21
+22 -22
+23 -23
+24 -24
+25 -25
+26 -26
+27 -27
+28 -28
+29 -29
+30 -30
+31 -31
+32 -32
+33 -33
+34 -34
+35 -35
+36 -36
+37 -37
+38 -38
+39 -39
+40 -40
+41 -41
+42 -42
+43 -43
+44 -44
+45 -45
+46 -46
+47 -47
+48 -48
+49 -49
+50 -50
+51 -51
+52 -52
+53 -53
+54 -54
+55 -55
+56 -56
+57 -57
+58 -58
+59 -59
+60 -60
+61 -61
+62 -62
+63 -63
+64 -64
+65 -65
+66 -66
+67 -67
+68 -68
+69 -69
+70 -70
+71 -71
+72 -72
+73 -73
+74 -74
+75 -75
+76 -76
+77 -77
EOF
